 &control
    calculation     = 'bands'
    prefix          = 'si'
    restart_mode    = 'from_scratch'
    pseudo_dir      = '~/PP/all/'
    outdir          = './temp/'
!    verbosity       = 'high'
 /
 &system
    ibrav     = 2
    celldm(1) = 10.26328
    nat       = 2
    ntyp      = 1
    ecutwfc   = 70.0
    nbnd = 18
 /
 &electrons
    diagonalization = 'david'
    mixing_beta     = 0.7
    conv_thr        = 1.0d-10
 /
ATOMIC_SPECIES
 Si  28.0855  Si.dojo.sr.ONCVv0.4.pbe.standard.upf
ATOMIC_POSITIONS crystal
 Si  0.125   0.125   0.125
 Si -0.125  -0.125  -0.125
K_POINTS crystal
64
  0.000000000000  0.000000000000  0.000000000000  1.56250000e-02
  0.000000000000  0.000000000000  0.250000000000  1.56250000e-02
  0.000000000000  0.000000000000  0.500000000000  1.56250000e-02
  0.000000000000  0.000000000000  0.750000000000  1.56250000e-02
  0.000000000000  0.250000000000  0.000000000000  1.56250000e-02
  0.000000000000  0.250000000000  0.250000000000  1.56250000e-02
  0.000000000000  0.250000000000  0.500000000000  1.56250000e-02
  0.000000000000  0.250000000000  0.750000000000  1.56250000e-02
  0.000000000000  0.500000000000  0.000000000000  1.56250000e-02
  0.000000000000  0.500000000000  0.250000000000  1.56250000e-02
  0.000000000000  0.500000000000  0.500000000000  1.56250000e-02
  0.000000000000  0.500000000000  0.750000000000  1.56250000e-02
  0.000000000000  0.750000000000  0.000000000000  1.56250000e-02
  0.000000000000  0.750000000000  0.250000000000  1.56250000e-02
  0.000000000000  0.750000000000  0.500000000000  1.56250000e-02
  0.000000000000  0.750000000000  0.750000000000  1.56250000e-02
  0.250000000000  0.000000000000  0.000000000000  1.56250000e-02
  0.250000000000  0.000000000000  0.250000000000  1.56250000e-02
  0.250000000000  0.000000000000  0.500000000000  1.56250000e-02
  0.250000000000  0.000000000000  0.750000000000  1.56250000e-02
  0.250000000000  0.250000000000  0.000000000000  1.56250000e-02
  0.250000000000  0.250000000000  0.250000000000  1.56250000e-02
  0.250000000000  0.250000000000  0.500000000000  1.56250000e-02
  0.250000000000  0.250000000000  0.750000000000  1.56250000e-02
  0.250000000000  0.500000000000  0.000000000000  1.56250000e-02
  0.250000000000  0.500000000000  0.250000000000  1.56250000e-02
  0.250000000000  0.500000000000  0.500000000000  1.56250000e-02
  0.250000000000  0.500000000000  0.750000000000  1.56250000e-02
  0.250000000000  0.750000000000  0.000000000000  1.56250000e-02
  0.250000000000  0.750000000000  0.250000000000  1.56250000e-02
  0.250000000000  0.750000000000  0.500000000000  1.56250000e-02
  0.250000000000  0.750000000000  0.750000000000  1.56250000e-02
  0.500000000000  0.000000000000  0.000000000000  1.56250000e-02
  0.500000000000  0.000000000000  0.250000000000  1.56250000e-02
  0.500000000000  0.000000000000  0.500000000000  1.56250000e-02
  0.500000000000  0.000000000000  0.750000000000  1.56250000e-02
  0.500000000000  0.250000000000  0.000000000000  1.56250000e-02
  0.500000000000  0.250000000000  0.250000000000  1.56250000e-02
  0.500000000000  0.250000000000  0.500000000000  1.56250000e-02
  0.500000000000  0.250000000000  0.750000000000  1.56250000e-02
  0.500000000000  0.500000000000  0.000000000000  1.56250000e-02
  0.500000000000  0.500000000000  0.250000000000  1.56250000e-02
  0.500000000000  0.500000000000  0.500000000000  1.56250000e-02
  0.500000000000  0.500000000000  0.750000000000  1.56250000e-02
  0.500000000000  0.750000000000  0.000000000000  1.56250000e-02
  0.500000000000  0.750000000000  0.250000000000  1.56250000e-02
  0.500000000000  0.750000000000  0.500000000000  1.56250000e-02
  0.500000000000  0.750000000000  0.750000000000  1.56250000e-02
  0.750000000000  0.000000000000  0.000000000000  1.56250000e-02
  0.750000000000  0.000000000000  0.250000000000  1.56250000e-02
  0.750000000000  0.000000000000  0.500000000000  1.56250000e-02
  0.750000000000  0.000000000000  0.750000000000  1.56250000e-02
  0.750000000000  0.250000000000  0.000000000000  1.56250000e-02
  0.750000000000  0.250000000000  0.250000000000  1.56250000e-02
  0.750000000000  0.250000000000  0.500000000000  1.56250000e-02
  0.750000000000  0.250000000000  0.750000000000  1.56250000e-02
  0.750000000000  0.500000000000  0.000000000000  1.56250000e-02
  0.750000000000  0.500000000000  0.250000000000  1.56250000e-02
  0.750000000000  0.500000000000  0.500000000000  1.56250000e-02
  0.750000000000  0.500000000000  0.750000000000  1.56250000e-02
  0.750000000000  0.750000000000  0.000000000000  1.56250000e-02
  0.750000000000  0.750000000000  0.250000000000  1.56250000e-02
  0.750000000000  0.750000000000  0.500000000000  1.56250000e-02
  0.750000000000  0.750000000000  0.750000000000  1.56250000e-02
