&inputpp
   outdir = 'temp/'
   prefix = 'si'
   seedname = 'si'
   spin_component = 'none'
   write_mmn = .true.
   write_amn = .true.
/
