num_wann  = 8
num_bands = 18
!exclude_bands = 5-18

guiding_centres = .true.

num_iter  = 0
conv_window = 5
conv_tol = 1.0d-10

dis_num_iter = 0
dis_mix_ratio = 0.5
dis_win_max = 25.0
dis_froz_max = 12.5
dis_conv_tol = 1.d-10

begin atoms_frac
 Si  0.125   0.125   1.125
 Si -0.125  -0.125   0.875
end atoms_frac

begin projections
Si:sp3
end projections

begin unit_cell_cart
Bohr
-5.13164 0.00000 5.13164
 0.00000 5.13164 5.13164
-5.13164 5.13164 0.00000
end unit_cell_cart

!write_hr = .false.
!write_u_matrices = .true.
use_ws_distance = .true.

bands_plot = .false.
begin kpoint_path
L      0.50000   0.50000   0.50000  GAMMA  0.00000   0.00000   0.00000
GAMMA  0.00000   0.00000   0.00000  X      0.50000   0.50000  -0.00000
X      0.50000   0.50000  -0.00000  W      0.75000   0.50000   0.25000
W      0.75000   0.50000   0.25000  K      0.75000   0.37500   0.37500
K      0.75000   0.37500   0.37500  GAMMA  0.00000   0.00000   0.00000
end kpoint_path
bands_num_points = 50
bands_plot_format = gnuplot
bands_plot_mode = s-k
bands_plot_dim = 3

mp_grid =      4      4      4
begin kpoints
  0.000000000000  0.000000000000  0.000000000000
  0.000000000000  0.000000000000  0.250000000000
  0.000000000000  0.000000000000  0.500000000000
  0.000000000000  0.000000000000  0.750000000000
  0.000000000000  0.250000000000  0.000000000000
  0.000000000000  0.250000000000  0.250000000000
  0.000000000000  0.250000000000  0.500000000000
  0.000000000000  0.250000000000  0.750000000000
  0.000000000000  0.500000000000  0.000000000000
  0.000000000000  0.500000000000  0.250000000000
  0.000000000000  0.500000000000  0.500000000000
  0.000000000000  0.500000000000  0.750000000000
  0.000000000000  0.750000000000  0.000000000000
  0.000000000000  0.750000000000  0.250000000000
  0.000000000000  0.750000000000  0.500000000000
  0.000000000000  0.750000000000  0.750000000000
  0.250000000000  0.000000000000  0.000000000000
  0.250000000000  0.000000000000  0.250000000000
  0.250000000000  0.000000000000  0.500000000000
  0.250000000000  0.000000000000  0.750000000000
  0.250000000000  0.250000000000  0.000000000000
  0.250000000000  0.250000000000  0.250000000000
  0.250000000000  0.250000000000  0.500000000000
  0.250000000000  0.250000000000  0.750000000000
  0.250000000000  0.500000000000  0.000000000000
  0.250000000000  0.500000000000  0.250000000000
  0.250000000000  0.500000000000  0.500000000000
  0.250000000000  0.500000000000  0.750000000000
  0.250000000000  0.750000000000  0.000000000000
  0.250000000000  0.750000000000  0.250000000000
  0.250000000000  0.750000000000  0.500000000000
  0.250000000000  0.750000000000  0.750000000000
  0.500000000000  0.000000000000  0.000000000000
  0.500000000000  0.000000000000  0.250000000000
  0.500000000000  0.000000000000  0.500000000000
  0.500000000000  0.000000000000  0.750000000000
  0.500000000000  0.250000000000  0.000000000000
  0.500000000000  0.250000000000  0.250000000000
  0.500000000000  0.250000000000  0.500000000000
  0.500000000000  0.250000000000  0.750000000000
  0.500000000000  0.500000000000  0.000000000000
  0.500000000000  0.500000000000  0.250000000000
  0.500000000000  0.500000000000  0.500000000000
  0.500000000000  0.500000000000  0.750000000000
  0.500000000000  0.750000000000  0.000000000000
  0.500000000000  0.750000000000  0.250000000000
  0.500000000000  0.750000000000  0.500000000000
  0.500000000000  0.750000000000  0.750000000000
  0.750000000000  0.000000000000  0.000000000000
  0.750000000000  0.000000000000  0.250000000000
  0.750000000000  0.000000000000  0.500000000000
  0.750000000000  0.000000000000  0.750000000000
  0.750000000000  0.250000000000  0.000000000000
  0.750000000000  0.250000000000  0.250000000000
  0.750000000000  0.250000000000  0.500000000000
  0.750000000000  0.250000000000  0.750000000000
  0.750000000000  0.500000000000  0.000000000000
  0.750000000000  0.500000000000  0.250000000000
  0.750000000000  0.500000000000  0.500000000000
  0.750000000000  0.500000000000  0.750000000000
  0.750000000000  0.750000000000  0.000000000000
  0.750000000000  0.750000000000  0.250000000000
  0.750000000000  0.750000000000  0.500000000000
  0.750000000000  0.750000000000  0.750000000000
end kpoints
