 &control
    calculation     = 'scf'
    prefix          = 'si'
    restart_mode    = 'from_scratch'
    pseudo_dir      = '~/PP/all/'
    outdir          = './temp/'
    tprnfor         = .true.
    tstress         = .true.
 /
 &system
    ibrav     = 0
    celldm(1) = 10.26328
    nat       = 4
    ntyp      = 1
    ecutwfc   = 70.0
 /
 &electrons
    diagonalization = 'david'
    mixing_beta     = 0.7
    conv_thr        = 1.0d-15
 /
ATOMIC_SPECIES
 Si  28.0855  Si.dojo.sr.ONCVv0.4.pbe.standard.upf
CELL_PARAMETERS  alat
  -0.5  0.0  0.5
   0.0  0.5  0.5
  -1.0  1.0  0.0
ATOMIC_POSITIONS crystal
 Si  0.125   0.125   0.0625
 Si -0.125  -0.125  -0.0625
 Si  0.125   0.125   0.5625
 Si -0.125  -0.125   0.4375
K_POINTS automatic
 14 14 7 0 0 0

