 &control
    calculation     = 'bands'
    prefix          = 'He'
    restart_mode    = 'from_scratch'
    pseudo_dir      = '../pseudo/'
    outdir          = './temp/'
 /
 &system
    ibrav     = 0
    nat       = 1
    ntyp      = 1
    ecutwfc   = 50.0
    nbnd = 1
 /
 &electrons
    diagonalization = 'david'
    mixing_beta     = 0.7
    conv_thr        = 1.0d-15
 /
ATOMIC_SPECIES
 He  1.  He.dojo.sr.ONCVv0.4.pbe.standard.upf
CELL_PARAMETERS bohr
  20.0  0.0  0.0
   0.0 20.0  0.0
   0.0  0.0 20.0
ATOMIC_POSITIONS crystal
 He  0.0  0.0  0.5
K_POINTS crystal
8
  0.000000000000  0.000000000000  0.000000000000  1.25000000e-01
  0.000000000000  0.000000000000  0.500000000000  1.25000000e-01
  0.000000000000  0.500000000000  0.000000000000  1.25000000e-01
  0.000000000000  0.500000000000  0.500000000000  1.25000000e-01
  0.500000000000  0.000000000000  0.000000000000  1.25000000e-01
  0.500000000000  0.000000000000  0.500000000000  1.25000000e-01
  0.500000000000  0.500000000000  0.000000000000  1.25000000e-01
  0.500000000000  0.500000000000  0.500000000000  1.25000000e-01
