 &control
    calculation     = 'bands'
    prefix          = 'He'
    restart_mode    = 'from_scratch'
    pseudo_dir      = '../pseudo/'
    outdir          = './temp/'
    tprnfor         = .true.
    tstress         = .true.
 /
 &system
    ibrav     = 0
    nat       = 8
    ntyp      = 1
    ecutwfc   = 50.0
 /
 &electrons
    diagonalization = 'david'
    mixing_beta     = 0.7
    conv_thr        = 1.0d-15
 /
ATOMIC_SPECIES
 He  1.  He.dojo.sr.ONCVv0.4.pbe.standard.upf
CELL_PARAMETERS bohr
  40.0  0.0  0.0
   0.0 40.0  0.0
   0.0  0.0 40.0
ATOMIC_POSITIONS crystal
 He  0.0  0.0  0.0
 He  0.5  0.0  0.0
 He  0.0  0.5  0.0
 He  0.5  0.5  0.0
 He  0.0  0.0  0.5
 He  0.5  0.0  0.5
 He  0.0  0.5  0.5
 He  0.5  0.5  0.5
K_POINTS crystal
1
  0.000000000000  0.000000000000  0.000000000000  1.00000000e+00
